
  32    1
  10

   0   0   4 2 3 6 8 
   5   1   3 7 5 4 
   6   6   2 5 4 
   4   7   4 13 12 11 10 
   1   6   3 13 11 9 
   6   4   3 13 10 9 
  10   6   4 14 13 12 11 
   6   5   3 14 12 11 
   1   4   2 14 12 
  10  10   2 16 14 
   3   9   4 19 18 17 16 
   9   5   3 18 16 15 
   4   9   4 24 22 19 17 
   2   4   3 19 18 17 
   8   6   3 24 22 17 
   1   1   6 28 26 24 23 22 21 
   6   9   5 28 25 23 21 20 
   8   9   4 28 25 23 21 
   9   8   3 28 26 25 
   9   5   3 31 30 26 
   1   3   3 31 30 27 
   8  10   2 31 25 
   1   8   2 30 27 
  10   3   1 25 
   2  10   2 30 29 
  10   3   1 27 
   4   5   1 29 
  10   9   1 30 
   1   6   1 32
   8   4   1 32
   7   5   1 32
   0   0   0 
